c description: Random 3-CNF over 21 variables and 89 clauses
c generator: CNFgen (0.9.2)
c copyright: (C) 2012-2022 Massimo Lauria <massimo.lauria@uniroma1.it>
c url: https://massimolauria.net/cnfgen
c command line: cnfgen --output CNF_4.28/21_bit_89_798.cnf randkcnf 3 21 89
c
p cnf 21 89
13 -16 20 0
12 -19 -20 0
-10 -17 -19 0
4 8 -20 0
5 7 13 0
8 14 -15 0
4 -8 17 0
1 -2 -16 0
-2 -10 12 0
-1 6 13 0
7 19 -21 0
-6 -8 -16 0
-2 -3 18 0
8 -9 -16 0
5 9 -20 0
-3 10 12 0
9 -11 20 0
-5 -8 10 0
1 -5 -20 0
-9 20 21 0
-1 2 -18 0
-1 3 21 0
10 14 20 0
-2 -7 -19 0
10 14 21 0
2 -6 13 0
1 9 19 0
11 -12 18 0
-3 4 13 0
-6 -10 12 0
6 16 -18 0
-3 -11 17 0
5 -7 20 0
-1 -10 19 0
1 3 -20 0
7 -14 16 0
4 -12 -17 0
2 11 15 0
9 12 -20 0
-8 9 15 0
-8 -13 15 0
-1 6 10 0
-8 -13 14 0
5 -11 -14 0
-6 -13 -21 0
-12 -14 -21 0
1 10 -14 0
3 8 11 0
1 -8 -12 0
6 -11 -16 0
2 4 -8 0
5 8 -19 0
-9 10 -19 0
-6 15 17 0
3 6 14 0
13 18 19 0
15 -17 18 0
9 -15 19 0
-4 5 -11 0
-1 13 14 0
2 3 17 0
5 17 18 0
2 -5 -14 0
-7 11 -17 0
9 10 -17 0
3 -9 -16 0
3 -14 21 0
-1 -2 20 0
5 15 16 0
1 -9 19 0
2 13 -21 0
13 15 20 0
-19 -20 21 0
-7 -11 17 0
-1 -16 -19 0
-2 -6 14 0
3 13 18 0
-2 -10 20 0
13 -16 19 0
1 3 21 0
1 -2 -11 0
8 -15 20 0
-4 -17 20 0
3 -5 -13 0
-5 8 -10 0
-8 10 -15 0
-6 -7 11 0
4 -6 13 0
6 8 16 0
